c File: data_files/evolved_graphs/g3632.col
c
c Auto generated graph
c
p edge 100 1152
e 1 2
e 1 8
e 1 12
e 1 17
e 1 23
e 1 26
e 1 28
e 1 32
e 1 66
e 1 73
e 1 74
e 1 81
e 2 6
e 2 7
e 2 13
e 2 17
e 2 18
e 2 24
e 2 33
e 2 39
e 2 65
e 2 99
e 3 8
e 3 9
e 3 17
e 3 21
e 3 24
e 3 25
e 3 32
e 3 34
e 3 39
e 3 42
e 3 71
e 3 72
e 3 90
e 4 11
e 4 25
e 4 76
e 5 9
e 5 12
e 5 14
e 5 24
e 5 25
e 5 27
e 5 30
e 5 38
e 5 74
e 5 92
e 5 97
e 6 9
e 6 22
e 6 32
e 6 49
e 6 53
e 7 9
e 7 10
e 7 13
e 7 21
e 7 25
e 7 29
e 7 31
e 7 32
e 8 25
e 8 26
e 8 38
e 8 43
e 8 50
e 8 52
e 8 59
e 8 61
e 8 65
e 8 66
e 8 80
e 8 83
e 8 84
e 8 85
e 8 87
e 8 90
e 8 91
e 8 92
e 8 95
e 8 96
e 9 10
e 9 11
e 9 26
e 9 29
e 9 36
e 9 40
e 9 44
e 9 47
e 9 50
e 9 53
e 9 57
e 9 64
e 9 70
e 9 82
e 9 84
e 9 86
e 9 90
e 9 92
e 9 96
e 10 16
e 10 19
e 10 33
e 10 35
e 10 43
e 10 46
e 10 47
e 10 52
e 10 59
e 10 60
e 10 64
e 10 66
e 10 68
e 10 71
e 10 73
e 10 79
e 10 85
e 10 89
e 10 92
e 10 97
e 10 99
e 11 22
e 11 27
e 11 28
e 11 30
e 11 31
e 11 37
e 11 38
e 11 46
e 11 48
e 11 53
e 11 57
e 11 59
e 11 72
e 11 84
e 11 88
e 11 89
e 11 90
e 11 91
e 11 97
e 11 98
e 11 99
e 12 27
e 12 31
e 12 38
e 12 40
e 12 41
e 12 43
e 12 44
e 12 45
e 12 51
e 12 54
e 12 58
e 12 60
e 12 69
e 12 70
e 12 72
e 12 73
e 12 78
e 12 80
e 12 87
e 12 97
e 13 14
e 13 22
e 13 30
e 13 33
e 13 40
e 13 44
e 13 50
e 13 57
e 13 58
e 13 59
e 13 60
e 13 63
e 13 68
e 13 70
e 13 71
e 13 72
e 13 74
e 13 75
e 13 85
e 13 90
e 13 92
e 13 96
e 13 97
e 14 16
e 14 18
e 14 27
e 14 34
e 14 35
e 14 41
e 14 49
e 14 50
e 14 51
e 14 58
e 14 59
e 14 62
e 14 63
e 14 64
e 14 65
e 14 68
e 14 72
e 14 75
e 14 78
e 14 79
e 14 90
e 14 94
e 14 97
e 14 98
e 14 99
e 14 100
e 15 19
e 15 20
e 15 22
e 15 24
e 15 27
e 15 28
e 15 32
e 15 33
e 15 36
e 15 39
e 15 41
e 15 46
e 15 53
e 15 57
e 15 68
e 15 70
e 15 73
e 15 75
e 15 80
e 15 84
e 15 88
e 15 100
e 16 17
e 16 31
e 16 45
e 16 52
e 16 54
e 16 80
e 16 89
e 16 90
e 16 99
e 17 18
e 17 25
e 17 30
e 17 38
e 17 42
e 17 43
e 17 45
e 17 46
e 17 47
e 17 48
e 17 50
e 17 60
e 17 76
e 17 80
e 17 97
e 18 19
e 18 30
e 18 31
e 18 36
e 18 41
e 18 42
e 18 46
e 18 48
e 18 50
e 18 55
e 18 60
e 18 67
e 18 73
e 18 77
e 18 81
e 18 89
e 18 95
e 18 98
e 19 20
e 19 37
e 19 39
e 19 41
e 19 44
e 19 46
e 19 47
e 19 48
e 19 50
e 19 57
e 19 69
e 19 74
e 19 76
e 19 78
e 19 81
e 19 86
e 20 22
e 20 23
e 20 30
e 20 31
e 20 32
e 20 35
e 20 36
e 20 43
e 20 46
e 20 47
e 20 51
e 20 95
e 20 97
e 21 34
e 21 36
e 21 37
e 21 39
e 21 40
e 21 42
e 21 46
e 21 48
e 21 50
e 21 65
e 21 70
e 22 25
e 22 27
e 22 30
e 22 34
e 22 37
e 22 38
e 22 40
e 22 41
e 22 42
e 22 43
e 22 44
e 22 45
e 22 46
e 22 48
e 22 51
e 22 52
e 22 62
e 22 66
e 22 87
e 22 95
e 22 96
e 22 97
e 23 24
e 23 26
e 23 29
e 23 34
e 23 37
e 23 38
e 23 39
e 23 40
e 23 41
e 23 42
e 23 45
e 23 47
e 23 49
e 23 50
e 23 51
e 23 60
e 23 64
e 23 79
e 23 80
e 23 85
e 23 93
e 23 96
e 24 28
e 24 31
e 24 33
e 24 34
e 24 35
e 24 37
e 24 40
e 24 41
e 24 42
e 24 44
e 24 45
e 24 46
e 24 49
e 24 50
e 24 53
e 24 69
e 24 76
e 24 79
e 24 100
e 25 28
e 25 29
e 25 30
e 25 35
e 25 37
e 25 38
e 25 39
e 25 44
e 25 46
e 25 47
e 25 48
e 25 49
e 25 51
e 25 60
e 25 68
e 25 86
e 26 30
e 26 32
e 26 35
e 26 39
e 26 41
e 26 42
e 26 43
e 26 45
e 26 46
e 26 47
e 26 50
e 26 51
e 26 72
e 26 73
e 26 86
e 26 100
e 27 29
e 27 34
e 27 36
e 27 37
e 27 38
e 27 39
e 27 40
e 27 42
e 27 43
e 27 44
e 27 46
e 27 49
e 27 50
e 27 55
e 27 61
e 27 65
e 27 71
e 27 72
e 28 30
e 28 32
e 28 38
e 28 41
e 28 44
e 28 45
e 28 46
e 28 47
e 28 48
e 28 49
e 28 50
e 28 57
e 28 63
e 28 84
e 28 88
e 28 95
e 28 98
e 29 32
e 29 33
e 29 35
e 29 36
e 29 37
e 29 38
e 29 40
e 29 42
e 29 43
e 29 44
e 29 47
e 29 79
e 29 91
e 29 95
e 30 32
e 30 35
e 30 39
e 30 40
e 30 41
e 30 43
e 30 44
e 30 45
e 30 46
e 30 47
e 30 48
e 30 49
e 30 50
e 30 69
e 30 72
e 30 74
e 30 98
e 31 32
e 31 33
e 31 34
e 31 36
e 31 37
e 31 38
e 31 42
e 31 43
e 31 44
e 31 45
e 31 46
e 31 47
e 31 48
e 31 49
e 31 50
e 31 57
e 31 58
e 31 63
e 31 79
e 31 89
e 31 95
e 31 97
e 31 98
e 32 40
e 32 42
e 32 43
e 32 45
e 32 48
e 32 50
e 32 51
e 32 71
e 32 85
e 32 89
e 32 91
e 32 100
e 33 41
e 33 43
e 33 45
e 33 46
e 33 48
e 33 49
e 33 50
e 33 71
e 33 73
e 33 79
e 33 96
e 33 98
e 34 44
e 34 48
e 34 49
e 34 53
e 34 59
e 34 62
e 34 63
e 34 79
e 34 98
e 35 36
e 35 38
e 35 40
e 35 41
e 35 43
e 35 47
e 35 49
e 35 50
e 35 51
e 35 82
e 36 41
e 36 42
e 36 43
e 36 45
e 36 49
e 36 50
e 36 53
e 36 67
e 36 76
e 36 81
e 36 82
e 36 85
e 36 93
e 36 95
e 37 38
e 37 41
e 37 42
e 37 44
e 37 45
e 37 46
e 37 49
e 37 51
e 37 53
e 37 56
e 37 76
e 37 95
e 37 96
e 37 98
e 37 99
e 38 41
e 38 43
e 38 44
e 38 45
e 38 48
e 38 57
e 38 59
e 38 77
e 38 96
e 38 97
e 38 100
e 39 45
e 39 46
e 39 51
e 39 63
e 39 69
e 39 71
e 39 78
e 39 79
e 39 99
e 40 46
e 40 49
e 40 51
e 40 54
e 40 62
e 40 68
e 40 71
e 40 75
e 40 76
e 40 83
e 40 84
e 40 95
e 40 96
e 40 99
e 40 100
e 41 48
e 41 51
e 41 62
e 41 64
e 41 67
e 41 69
e 41 77
e 41 79
e 41 80
e 41 81
e 41 85
e 41 87
e 41 89
e 41 90
e 41 91
e 41 92
e 41 95
e 41 96
e 41 97
e 41 98
e 41 100
e 42 43
e 42 46
e 42 52
e 42 55
e 42 62
e 42 65
e 42 69
e 42 72
e 42 75
e 42 76
e 42 79
e 42 80
e 42 81
e 42 83
e 42 84
e 42 86
e 42 87
e 42 89
e 42 90
e 42 91
e 42 92
e 42 93
e 42 96
e 42 97
e 42 99
e 43 44
e 43 48
e 43 50
e 43 57
e 43 59
e 43 62
e 43 63
e 43 66
e 43 67
e 43 70
e 43 76
e 43 77
e 43 79
e 43 80
e 43 82
e 43 83
e 43 89
e 43 92
e 43 93
e 44 60
e 44 70
e 44 72
e 44 74
e 44 76
e 44 77
e 44 79
e 44 83
e 44 86
e 44 89
e 44 92
e 44 94
e 44 98
e 44 99
e 45 50
e 45 51
e 45 53
e 45 57
e 45 76
e 45 78
e 45 79
e 45 80
e 45 81
e 45 85
e 45 89
e 45 90
e 45 92
e 45 93
e 45 98
e 46 56
e 46 62
e 46 66
e 46 77
e 46 80
e 46 81
e 46 82
e 46 83
e 46 86
e 46 88
e 46 92
e 46 96
e 46 97
e 46 99
e 46 100
e 47 59
e 47 63
e 47 68
e 47 69
e 47 74
e 47 76
e 47 78
e 47 84
e 47 85
e 47 95
e 47 96
e 47 98
e 47 100
e 48 50
e 48 54
e 48 65
e 48 68
e 48 70
e 48 72
e 48 73
e 48 78
e 48 80
e 48 86
e 48 90
e 48 91
e 48 96
e 48 97
e 48 100
e 49 51
e 49 52
e 49 54
e 49 55
e 49 63
e 49 67
e 49 71
e 49 77
e 49 81
e 49 83
e 49 87
e 49 89
e 49 90
e 49 94
e 49 99
e 50 56
e 50 63
e 50 65
e 50 66
e 50 72
e 50 73
e 50 75
e 50 76
e 50 79
e 50 80
e 50 82
e 50 83
e 50 89
e 50 98
e 50 100
e 51 67
e 51 71
e 51 75
e 51 77
e 51 79
e 51 86
e 51 88
e 51 89
e 51 92
e 51 95
e 52 59
e 52 72
e 52 74
e 52 76
e 52 79
e 52 80
e 52 81
e 52 82
e 52 84
e 52 85
e 52 86
e 52 88
e 52 90
e 52 94
e 52 95
e 52 96
e 52 98
e 52 100
e 53 55
e 53 61
e 53 64
e 53 68
e 53 71
e 53 75
e 53 78
e 53 81
e 53 87
e 53 88
e 53 90
e 53 91
e 53 97
e 53 99
e 54 56
e 54 57
e 54 61
e 54 71
e 54 73
e 54 75
e 54 80
e 54 83
e 54 84
e 54 91
e 54 92
e 54 94
e 54 99
e 55 57
e 55 79
e 55 91
e 55 92
e 55 94
e 55 96
e 55 97
e 55 99
e 56 63
e 56 66
e 56 69
e 56 78
e 56 83
e 56 86
e 56 87
e 56 88
e 56 89
e 56 91
e 56 94
e 56 95
e 56 96
e 56 97
e 57 62
e 57 70
e 57 80
e 57 83
e 57 84
e 57 85
e 57 87
e 57 88
e 57 89
e 57 93
e 57 95
e 58 60
e 58 61
e 58 62
e 58 63
e 58 66
e 58 67
e 58 74
e 58 75
e 58 79
e 58 80
e 58 81
e 58 82
e 58 83
e 58 84
e 58 85
e 58 86
e 58 91
e 58 92
e 58 96
e 58 97
e 59 65
e 59 72
e 59 78
e 59 80
e 59 81
e 59 83
e 59 86
e 59 87
e 59 89
e 59 93
e 59 94
e 59 95
e 59 97
e 59 98
e 60 76
e 60 79
e 60 80
e 60 81
e 60 85
e 60 89
e 60 90
e 60 95
e 60 100
e 61 63
e 61 67
e 61 68
e 61 71
e 61 73
e 61 75
e 61 76
e 61 78
e 61 82
e 61 84
e 61 86
e 61 87
e 61 88
e 61 89
e 61 90
e 61 91
e 61 92
e 61 95
e 61 96
e 61 97
e 61 98
e 62 80
e 62 82
e 62 83
e 62 85
e 62 86
e 62 89
e 62 92
e 62 94
e 62 95
e 62 96
e 62 97
e 63 67
e 63 72
e 63 74
e 63 77
e 63 83
e 63 85
e 63 88
e 63 91
e 63 92
e 63 93
e 63 94
e 63 95
e 63 96
e 63 100
e 64 70
e 64 72
e 64 77
e 64 80
e 64 81
e 64 84
e 64 86
e 64 87
e 64 90
e 64 91
e 64 98
e 64 99
e 64 100
e 65 67
e 65 70
e 65 72
e 65 73
e 65 75
e 65 77
e 65 79
e 65 80
e 65 81
e 65 82
e 65 83
e 65 85
e 65 88
e 65 93
e 65 94
e 65 95
e 65 96
e 66 67
e 66 68
e 66 74
e 66 77
e 66 80
e 66 82
e 66 84
e 66 91
e 66 92
e 66 96
e 66 100
e 67 71
e 67 74
e 67 75
e 67 77
e 67 80
e 67 84
e 67 87
e 67 88
e 67 90
e 67 91
e 67 92
e 67 93
e 67 99
e 67 100
e 68 70
e 68 72
e 68 75
e 68 76
e 68 78
e 68 81
e 68 83
e 68 86
e 68 87
e 68 90
e 68 91
e 68 96
e 68 100
e 69 71
e 69 73
e 69 75
e 69 76
e 69 78
e 69 80
e 69 81
e 69 82
e 69 85
e 69 86
e 69 89
e 69 93
e 69 95
e 69 98
e 69 99
e 70 74
e 70 76
e 70 77
e 70 78
e 70 79
e 70 81
e 70 82
e 70 84
e 70 85
e 70 89
e 70 92
e 70 94
e 70 96
e 70 97
e 70 99
e 70 100
e 71 77
e 71 81
e 71 83
e 71 89
e 71 91
e 71 93
e 71 94
e 71 97
e 72 77
e 72 78
e 72 80
e 72 81
e 72 84
e 72 85
e 72 86
e 72 95
e 72 98
e 73 75
e 73 78
e 73 81
e 73 82
e 73 86
e 73 87
e 73 88
e 73 89
e 73 91
e 73 94
e 73 96
e 73 98
e 73 99
e 73 100
e 74 76
e 74 78
e 74 79
e 74 81
e 74 86
e 74 87
e 74 89
e 74 93
e 74 95
e 74 96
e 74 99
e 74 100
e 75 79
e 75 87
e 75 88
e 75 92
e 75 93
e 75 98
e 76 77
e 76 79
e 76 81
e 76 86
e 76 91
e 76 94
e 76 97
e 77 81
e 77 85
e 77 88
e 77 92
e 77 95
e 77 96
e 78 87
e 78 99
e 79 87
e 79 90
e 79 95
e 79 98
e 80 91
e 80 96
e 80 97
e 80 99
e 81 96
e 82 83
e 82 91
e 82 95
e 82 96
e 83 91
e 83 94
e 83 96
e 83 100
e 84 94
e 84 100
e 85 90
e 85 93
e 86 89
e 86 95
e 86 100
e 87 93
e 87 95
e 88 93
e 89 98
e 89 99
e 90 96
e 90 98
e 91 99
e 95 96
e 95 98
e 95 99
e 96 99
e 98 100
e 99 100
